1702120.0
1449
0 1 2 3 5 6 7 8 9 10 11 12 14 15 16 17 18 19 20 21 23 24 25 26 28 29 30 31 32 33 34 37 38 39 43 44 45 47 48 49 50 52 54 55 57 60 62 63 64 65 66 68 69 70 71 73 74 75 76 77 78 80 81 82 84 86 87 88 90 92 94 95 96 99 